nK = 1309;
nT = 4;
nI = 7;
L = 29;
TT = 314;
np = 1;
nc = 3;
b = [32, 25, 54, 20, 61, 70, 60];
d = [123, 97, 127, 129, 98, 147, 98];
m = [1.7, 1.8, 2, 1.6, 1.7, 1.3, 1.5];
pt = [0.25, 0.23, 0.3, 0.31];
st = [14.5, 12.88, 16.8, 15.5];
arc = {<1, 0, 1, 1, 0, 0, 0, [1, 1, 1, 1]>, <2, 1, 2, 1, 0, 0, 0, [1, 1, 1, 1]>, <3, 2, 3, 1, 0, 0, 0, [1, 1, 1, 1]>, <4, 3, 4, 1, 0, 0, 0, [1, 1, 1, 1]>, <5, 4, 5, 1, 0, 0, 0, [1, 1, 1, 1]>, <6, 5, 6, 1, 0, 0, 0, [1, 1, 1, 1]>, <7, 6, 7, 1, 0, 0, 0, [1, 1, 1, 1]>, <8, 7, 8, 1, 0, 0, 0, [1, 1, 1, 1]>, <9, 8, 9, 1, 0, 0, 0, [1, 1, 1, 1]>, <10, 9, 10, 1, 0, 0, 0, [1, 1, 1, 1]>, <11, 10, 11, 1, 0, 0, 0, [1, 1, 1, 1]>, <12, 11, 12, 1, 0, 0, 0, [1, 1, 1, 1]>, <13, 12, 13, 1, 0, 0, 0, [1, 1, 1, 1]>, <14, 13, 14, 1, 0, 0, 0, [1, 1, 1, 1]>, <15, 14, 15, 1, 0, 0, 0, [1, 1, 1, 1]>, <16, 15, 16, 1, 0, 0, 0, [1, 1, 1, 1]>, <17, 16, 17, 1, 0, 0, 0, [1, 1, 1, 1]>, <18, 17, 18, 1, 0, 0, 0, [1, 1, 1, 1]>, <19, 18, 19, 1, 0, 0, 0, [1, 1, 1, 1]>, <20, 19, 20, 1, 0, 0, 0, [1, 1, 1, 1]>, <21, 20, 21, 1, 0, 0, 0, [1, 1, 1, 1]>, <22, 21, 22, 1, 0, 0, 0, [1, 1, 1, 1]>, <23, 22, 23, 1, 0, 0, 0, [1, 1, 1, 1]>, <24, 23, 24, 1, 0, 0, 0, [1, 1, 1, 1]>, <25, 24, 25, 1, 0, 0, 0, [1, 1, 1, 1]>, <26, 25, 26, 1, 0, 0, 0, [1, 1, 1, 1]>, <27, 26, 27, 1, 0, 0, 0, [1, 1, 1, 1]>, <28, 27, 28, 1, 0, 0, 0, [1, 1, 1, 1]>, <29, 28, 29, 1, 0, 0, 0, [1, 1, 1, 1]>, <30, 0, 18, 18, 1, 0, 1, [0, 1, 1, 0]>, <31, 1, 19, 18, 1, 0, 1, [0, 1, 1, 0]>, <32, 2, 20, 18, 1, 0, 1, [0, 1, 1, 0]>, <33, 3, 21, 18, 1, 0, 1, [0, 1, 1, 0]>, <34, 4, 22, 18, 1, 0, 1, [0, 1, 1, 0]>, <35, 5, 23, 18, 1, 0, 1, [0, 1, 1, 0]>, <36, 6, 24, 18, 1, 0, 1, [0, 1, 1, 0]>, <37, 7, 25, 18, 1, 0, 1, [0, 1, 1, 0]>, <38, 8, 26, 18, 1, 0, 1, [0, 1, 1, 0]>, <39, 9, 27, 18, 1, 0, 1, [0, 1, 1, 0]>, <40, 10, 28, 18, 1, 0, 1, [0, 1, 1, 0]>, <41, 11, 29, 18, 1, 0, 1, [0, 1, 1, 0]>, <42, 0, 17, 17, 2, 1, 0, [0, 1, 1, 0]>, <43, 1, 18, 17, 2, 1, 0, [0, 1, 1, 0]>, <44, 2, 19, 17, 2, 1, 0, [0, 1, 1, 0]>, <45, 3, 20, 17, 2, 1, 0, [0, 1, 1, 0]>, <46, 4, 21, 17, 2, 1, 0, [0, 1, 1, 0]>, <47, 5, 22, 17, 2, 1, 0, [0, 1, 1, 0]>, <48, 6, 23, 17, 2, 1, 0, [0, 1, 1, 0]>, <49, 7, 24, 17, 2, 1, 0, [0, 1, 1, 0]>, <50, 8, 25, 17, 2, 1, 0, [0, 1, 1, 0]>, <51, 9, 26, 17, 2, 1, 0, [0, 1, 1, 0]>, <52, 10, 27, 17, 2, 1, 0, [0, 1, 1, 0]>, <53, 11, 28, 17, 2, 1, 0, [0, 1, 1, 0]>, <54, 12, 29, 17, 2, 1, 0, [0, 1, 1, 0]>, <55, 0, 13, 13, 3, 0, 1, [0, 0, 1, 1]>, <56, 1, 14, 13, 3, 0, 1, [0, 0, 1, 1]>, <57, 2, 15, 13, 3, 0, 1, [0, 0, 1, 1]>, <58, 3, 16, 13, 3, 0, 1, [0, 0, 1, 1]>, <59, 4, 17, 13, 3, 0, 1, [0, 0, 1, 1]>, <60, 5, 18, 13, 3, 0, 1, [0, 0, 1, 1]>, <61, 7, 20, 13, 3, 0, 1, [0, 0, 1, 1]>, <62, 8, 21, 13, 3, 0, 1, [0, 0, 1, 1]>, <63, 9, 22, 13, 3, 0, 1, [0, 0, 1, 1]>, <64, 10, 23, 13, 3, 0, 1, [0, 0, 1, 1]>, <65, 11, 24, 13, 3, 0, 1, [0, 0, 1, 1]>, <66, 12, 25, 13, 3, 0, 1, [0, 0, 1, 1]>, <67, 13, 26, 13, 3, 0, 1, [0, 0, 1, 1]>, <68, 14, 27, 13, 3, 0, 1, [0, 0, 1, 1]>, <69, 15, 28, 13, 3, 0, 1, [0, 0, 1, 1]>, <70, 16, 29, 13, 3, 0, 1, [0, 0, 1, 1]>, <71, 0, 14, 14, 4, 0, 0, [0, 1, 1, 0]>, <72, 1, 15, 14, 4, 0, 0, [0, 1, 1, 0]>, <73, 2, 16, 14, 4, 0, 0, [0, 1, 1, 0]>, <74, 3, 17, 14, 4, 0, 0, [0, 1, 1, 0]>, <75, 4, 18, 14, 4, 0, 0, [0, 1, 1, 0]>, <76, 5, 19, 14, 4, 0, 0, [0, 1, 1, 0]>, <77, 6, 20, 14, 4, 0, 0, [0, 1, 1, 0]>, <78, 7, 21, 14, 4, 0, 0, [0, 1, 1, 0]>, <79, 8, 22, 14, 4, 0, 0, [0, 1, 1, 0]>, <80, 9, 23, 14, 4, 0, 0, [0, 1, 1, 0]>, <81, 10, 24, 14, 4, 0, 0, [0, 1, 1, 0]>, <82, 11, 25, 14, 4, 0, 0, [0, 1, 1, 0]>, <83, 12, 26, 14, 4, 0, 0, [0, 1, 1, 0]>, <84, 13, 27, 14, 4, 0, 0, [0, 1, 1, 0]>, <85, 14, 28, 14, 4, 0, 0, [0, 1, 1, 0]>, <86, 15, 29, 14, 4, 0, 0, [0, 1, 1, 0]>, <87, 0, 14, 14, 5, 0, 0, [0, 0, 1, 1]>, <88, 1, 15, 14, 5, 0, 0, [0, 0, 1, 1]>, <89, 2, 16, 14, 5, 0, 0, [0, 0, 1, 1]>, <90, 3, 17, 14, 5, 0, 0, [0, 0, 1, 1]>, <91, 4, 18, 14, 5, 0, 0, [0, 0, 1, 1]>, <92, 5, 19, 14, 5, 0, 0, [0, 0, 1, 1]>, <93, 6, 20, 14, 5, 0, 0, [0, 0, 1, 1]>, <94, 7, 21, 14, 5, 0, 0, [0, 0, 1, 1]>, <95, 8, 22, 14, 5, 0, 0, [0, 0, 1, 1]>, <96, 9, 23, 14, 5, 0, 0, [0, 0, 1, 1]>, <97, 10, 24, 14, 5, 0, 0, [0, 0, 1, 1]>, <98, 11, 25, 14, 5, 0, 0, [0, 0, 1, 1]>, <99, 12, 26, 14, 5, 0, 0, [0, 0, 1, 1]>, <100, 13, 27, 14, 5, 0, 0, [0, 0, 1, 1]>, <101, 14, 28, 14, 5, 0, 0, [0, 0, 1, 1]>, <102, 15, 29, 14, 5, 0, 0, [0, 0, 1, 1]>, <103, 0, 17, 17, 6, 1, 0, [1, 1, 0, 0]>, <104, 1, 18, 17, 6, 1, 0, [1, 1, 0, 0]>, <105, 2, 19, 17, 6, 1, 0, [1, 1, 0, 0]>, <106, 3, 20, 17, 6, 1, 0, [1, 1, 0, 0]>, <107, 4, 21, 17, 6, 1, 0, [1, 1, 0, 0]>, <108, 5, 22, 17, 6, 1, 0, [1, 1, 0, 0]>, <109, 6, 23, 17, 6, 1, 0, [1, 1, 0, 0]>, <110, 7, 24, 17, 6, 1, 0, [1, 1, 0, 0]>, <111, 8, 25, 17, 6, 1, 0, [1, 1, 0, 0]>, <112, 9, 26, 17, 6, 1, 0, [1, 1, 0, 0]>, <113, 10, 27, 17, 6, 1, 0, [1, 1, 0, 0]>, <114, 11, 28, 17, 6, 1, 0, [1, 1, 0, 0]>, <115, 12, 29, 17, 6, 1, 0, [1, 1, 0, 0]>, <116, 0, 17, 17, 7, 0, 1, [1, 0, 0, 1]>, <117, 1, 18, 17, 7, 0, 1, [1, 0, 0, 1]>, <118, 2, 19, 17, 7, 0, 1, [1, 0, 0, 1]>, <119, 3, 20, 17, 7, 0, 1, [1, 0, 0, 1]>, <120, 4, 21, 17, 7, 0, 1, [1, 0, 0, 1]>, <121, 5, 22, 17, 7, 0, 1, [1, 0, 0, 1]>, <122, 6, 23, 17, 7, 0, 1, [1, 0, 0, 1]>, <123, 7, 24, 17, 7, 0, 1, [1, 0, 0, 1]>, <124, 8, 25, 17, 7, 0, 1, [1, 0, 0, 1]>, <125, 9, 26, 17, 7, 0, 1, [1, 0, 0, 1]>, <126, 10, 27, 17, 7, 0, 1, [1, 0, 0, 1]>, <127, 11, 28, 17, 7, 0, 1, [1, 0, 0, 1]>, <128, 12, 29, 17, 7, 0, 1, [1, 0, 0, 1]>};
